benchmarks/VRPTW/TSPTW/solution/n20w120.004.txt.solution
1 12 4 16 10 8 3 20 9 6 7 11 15 5 14 13 21 17 18 19 2 
300
